1659218
61,24,54,13,20,65,45,27,17,9,58,68,35,51,39,62,37,53,28,31,22,52,33,57,18,10,14,44,50,8,15,36,59,16,63,2,48,4,47,1,12,42,3,21,38,67,7,43,46,34,55,26,66,11,64,41,25,30,6,60,49,19,23,5,29,40,56,32